1 of 1 MIP starts provided solutions.
MIP start 'm1' defined initial solution with objective 7330.1151.
Tried aggregator 2 times.
MIP Presolve eliminated 83 rows and 76 columns.
MIP Presolve modified 2075 coefficients.
Aggregator did 16 substitutions.
Reduced MIP has 1701 rows, 1068 columns, and 7786 nonzeros.
Reduced MIP has 757 binaries, 0 generals, 0 SOSs, and 0 indicators.
Presolve time = 0.01 sec. (5.87 ticks)
Probing time = 0.01 sec. (2.94 ticks)
Tried aggregator 1 time.
Reduced MIP has 1701 rows, 1068 columns, and 7786 nonzeros.
Reduced MIP has 757 binaries, 0 generals, 0 SOSs, and 0 indicators.
Presolve time = 0.01 sec. (3.63 ticks)
Probing time = 0.01 sec. (2.93 ticks)
Clique table members: 1924.
MIP emphasis: balance optimality and feasibility.
MIP search method: dynamic search.
Parallel mode: none, using 1 thread.
Root relaxation solution time = 0.01 sec. (4.62 ticks)

        Nodes                                         Cuts/
   Node  Left     Objective  IInf  Best Integer    Best Bound    ItCnt     Gap

*     0+    0                         7330.1151    20509.0153      358  179.79%
      0     0     8269.8107   209     7330.1151     8269.8107      358   12.82%
      0     0     7735.6736   156     7330.1151     Cuts: 525      609    5.53%
      0     0     7604.9291   147     7330.1151     Cuts: 418      741    3.75%
      0     0     7556.5377   131     7330.1151     Cuts: 257      806    3.09%
      0     0     7529.2317   167     7330.1151     Cuts: 143      879    2.72%
      0     0     7502.8768   167     7330.1151     Cuts: 133      928    2.36%
      0     0     7494.7289   160     7330.1151      Cuts: 81      964    2.25%
      0     0     7477.6597   182     7330.1151      Cuts: 68     1024    2.01%
      0     0     7473.3720   178     7330.1151      Cuts: 57     1056    1.95%
      0     0     7470.5574   177     7330.1151      Cuts: 59     1094    1.92%
      0     0     7468.2086   178     7330.1151      Cuts: 49     1128    1.88%
      0     0     7467.1946   200     7330.1151      Cuts: 38     1202    1.87%
      0     0     7466.5154   180     7330.1151      Cuts: 33     1222    1.86%
      0     0     7463.4238   207     7330.1151      Cuts: 46     1264    1.82%
      0     0     7462.3281   208     7330.1151      Cuts: 30     1278    1.80%
      0     0     7461.8575   194     7330.1151      Cuts: 20     1293    1.80%
      0     0     7461.5529   208     7330.1151      Cuts: 15     1300    1.79%
      0     2     7461.5529   208     7330.1151     7459.1073     1300    1.76%
Elapsed time = 0.72 sec. (366.20 ticks, tree = 0.00 MB, solutions = 1)
    168    99     7390.2825   110     7330.1151     7402.6747     3086    0.99%
    440   294     7383.1954   116     7330.1151     7395.2977     5296    0.89%
    493   339     7341.7199    85     7330.1151     7341.7199     7021    0.16%

Clique cuts applied:  4
Implied bound cuts applied:  206
Flow cuts applied:  20
Mixed integer rounding cuts applied:  30
Lift and project cuts applied:  72
Gomory fractional cuts applied:  46

Root node processing (before b&c):
  Real time             =    0.72 sec. (366.14 ticks)
Sequential b&c:
  Real time             =    4.64 sec. (2412.86 ticks)
                          ------------
Total (root+branch&cut) =    5.35 sec. (2779.00 ticks)
